(set-info :smt-lib-version 2.6)
(set-logic LRA)
(set-info :source |
   Monniaux, David; Quantifier Elimination by Lazy Model Enumeration, CAV 2010
|)
(set-info :category "random")
; ./Mjollnir_examples/B1/formula_177.m
(set-info :status sat)
(assert
 (forall ((|v9:0| Real) )(exists ((|v8:1| Real) )(forall ((|v7:2| Real) )(exists ((|v6:3| Real) )(forall ((|v5:4| Real) )(exists ((|v4:5| Real) )(forall ((|v3:6| Real) )(exists ((|v2:7| Real) )(forall ((|v1:8| Real) )(exists ((|v0:9| Real) )(let ((?x15 (* 15 |v2:7|)))
(let (($x187 (<= (+ (+ (* 12 |v9:0|) (* 13 |v0:9|)) ?x15) 9)))
(let ((?x19 (- 10)))
(let ((?x175 (+ (+ (* (- 8) |v2:7|) (* (- 8) |v1:8|)) (* 17 |v7:2|))))
(let ((?x169 (+ (+ (* (- 15) |v0:9|) (* (- 12) |v6:3|)) (* 0 |v7:2|))))
(let (($x161 (<= (+ (+ ?x15 (* 14 |v5:4|)) (* 2 |v6:3|)) (- 1))))
(let ((?x71 20))
(let ((?x151 (+ (+ (* (- 2) |v1:8|) (* 16 |v5:4|)) (* (- 5) |v4:5|))))
(let (($x178 (and (and (<= ?x151 ?x71) $x161) (or (<= ?x169 (- 15)) (<= ?x175 ?x19)))))
(let ((?x139 (+ (+ (* 18 |v2:7|) (* (- 6) |v8:1|)) (* (- 20) |v1:8|))))
(let ((?x131 (+ (+ (* 9 |v2:7|) (* (- 12) |v0:9|)) (* 17 |v6:3|))))
(let ((?x10 (- 17)))
(let ((?x122 (+ (+ (* 4 |v7:2|) (* 4 |v1:8|)) (* 3 |v6:3|))))
(let (($x142 (and (<= ?x122 ?x10) (or (<= ?x131 (- 20)) (<= ?x139 (- 7))))))
(let ((?x112 (+ (+ (* 4 |v4:5|) (* 17 |v0:9|)) (* (- 9) |v2:7|))))
(let ((?x101 4))
(let ((?x100 (+ (+ (* ?x19 |v2:7|) (* (- 16) |v1:8|)) (* (- 1) |v3:6|))))
(let ((?x64 (- 12)))
(let ((?x89 (+ (+ (* (- 19) |v5:4|) (* ?x71 |v3:6|)) (* (- 7) |v4:5|))))
(let ((?x80 (+ (+ (* ?x71 |v8:1|) (* (- 13) |v6:3|)) (* 0 |v9:0|))))
(let (($x116 (and (and (<= ?x80 13) (<= ?x89 ?x64)) (or (<= ?x100 ?x101) (<= ?x112 19)))))
(let ((?x62 (* 18 |v2:7|)))
(let ((?x50 (+ (+ (* 11 |v3:6|) (* (- 8) |v0:9|)) (* (- 16) |v4:5|))))
(let (($x66 (and (<= ?x50 (- 14)) (<= (+ (+ (* (- 5) |v7:2|) (* ?x10 |v9:0|)) ?x62) ?x64))))
(let ((?x36 (+ (+ (* 11 |v5:4|) (* 3 |v2:7|)) (* (- 11) |v7:2|))))
(let (($x38 (and (<= (+ (+ (* ?x10 |v6:3|) ?x15) (* ?x19 |v3:6|)) (- 19)) (<= ?x36 15))))
(and (or (or (or $x38 $x66) $x116) (and $x142 $x178)) $x187))))))))))))))))))))))))))))
)
)
)
)
)
)
)
)
)
)
(check-sat)
(exit)

